NAME : berlin52-R-5-1-b.9957.tour
COMMENT : Length = 9957
COMMENT : Found by LKH-3 [Keld Helsgaun] Tue Jul 30 13:14:23 2024
TYPE : TOUR
DIMENSION : 52
TOUR_SECTION
1
18
49
34
38
48
24
6
12
26
13
14
52
11
51
33
43
10
9
8
22
31
23
20
50
16
29
47
27
28
25
37
39
40
15
5
4
46
44
35
36
32
45
19
41
3
17
21
42
7
2
30
-1
EOF
